data;

param num_top:=3;

#nodes and edges of the physical network
param n := 10;

set E := (1,2) (1,3) (1,7) (2,4) (2,7) (3,5) (4,8) (5,6) (5,7) (6,7) (6,9) (7,8) (7,9) (8,10) (9,10) ;

#nodes and edges of the virtual networks
set Nl[1] := 6 3 2 8 9 ;
set Nl[2] := 8 10 1 7 4 ;
set Nl[3] := 5 6 7 1 9 ;

set El[1] := (3,6) (2,3) (2,8) (8,9) (6,9) ;
set El[2] := (8,10) (1,10) (1,7) (4,7) (4,8) ;
set El[3] := (5,6) (6,7) (1,7) (1,9) (5,9) ;
